
Gurobi 6.5.2 (linux64) logging started Sun Sep 18 18:41:16 2016


Gurobi 6.5.2 (linux64) logging started Sun Sep 18 18:41:16 2016

Optimize a model with 101 rows, 663 columns and 1327 nonzeros
Coefficient statistics:
  Matrix range    [1e+00, 2e+00]
  Objective range [3e+00, 1e+02]
  Bounds range    [1e+00, 1e+00]
  RHS range       [1e+00, 1e+00]
Presolve removed 51 rows and 50 columns
Presolve time: 0.00s
Presolved: 50 rows, 613 columns, 1226 nonzeros
Variable types: 0 continuous, 613 integer (613 binary)

Root relaxation: objective 8.075000e+02, 66 iterations, 0.00 seconds

    Nodes    |    Current Node    |     Objective Bounds      |     Work
 Expl Unexpl |  Obj  Depth IntInf | Incumbent    BestBd   Gap | It/Node Time

     0     0  807.50000    0    6          -  807.50000      -     -    0s
     0     0  808.33333    0    6          -  808.33333      -     -    0s
     0     0  808.50000    0    6          -  808.50000      -     -    0s
     0     0  808.50000    0    6          -  808.50000      -     -    0s
H    0     0                     847.0000000  808.50000  4.55%     -    0s
     0     0  808.50000    0    6  847.00000  808.50000  4.55%     -    0s
H    0     0                     838.0000000  808.50000  3.52%     -    0s
     0     0  808.50000    0    6  838.00000  808.50000  3.52%     -    0s
     0     0  808.50000    0    6  838.00000  808.50000  3.52%     -    0s
H    0     0                     827.0000000  808.50000  2.24%     -    0s
     0     0  808.50000    0    6  827.00000  808.50000  2.24%     -    0s
     0     0  808.50000    0    6  827.00000  808.50000  2.24%     -    0s
     0     0  808.50000    0    6  827.00000  808.50000  2.24%     -    0s
     0     0  809.00000    0   11  827.00000  809.00000  2.18%     -    0s
     0     0  809.00000    0   11  827.00000  809.00000  2.18%     -    0s
     0     0  809.00000    0    8  827.00000  809.00000  2.18%     -    0s
     0     2  809.00000    0    4  827.00000  809.00000  2.18%     -    0s

Cutting planes:
  Gomory: 3
  Zero half: 2
  Lazy constraints: 406

Explored 2748 nodes (8297 simplex iterations) in 0.40 seconds
Thread count was 8 (of 8 available processors)

Optimal solution found (tolerance 1.00e-04)
Best objective 8.270000000000e+02, best bound 8.270000000000e+02, gap 0.0%
